solution status: optimal solution found
objective value:                     181365.477326527
d11(0,0)                                            1 	(obj:0)
d11(1,1)                                            1 	(obj:0)
d11(2,3)                                            1 	(obj:0)
d11(2,4)                                            1 	(obj:0)
d11(2,5)                                            1 	(obj:0)
d11(2,6)                                            1 	(obj:0)
d11(3,7)                                            1 	(obj:0)
d11(3,8)                                            1 	(obj:0)
d11(3,9)                                            1 	(obj:0)
d11(3,11)                                           1 	(obj:0)
d11(3,12)                                           1 	(obj:0)
d11(3,13)                                           1 	(obj:0)
d11(3,14)                                           1 	(obj:0)
d11(4,15)                                           1 	(obj:0)
d11(4,16)                                           1 	(obj:0)
d11(4,17)                                           1 	(obj:0)
d11(4,18)                                           1 	(obj:0)
d11(4,19)                                           1 	(obj:0)
d11(4,20)                                           1 	(obj:0)
d11(4,21)                                           1 	(obj:0)
d11(4,22)                                           1 	(obj:0)
d11(4,23)                                           1 	(obj:0)
d11(4,24)                                           1 	(obj:0)
d11(4,25)                                           1 	(obj:0)
d11(4,26)                                           1 	(obj:0)
d11(4,27)                                           1 	(obj:0)
d11(4,28)                                           1 	(obj:0)
d11(4,29)                                           1 	(obj:0)
d11(4,30)                                           1 	(obj:0)
d12(1,2)                                            1 	(obj:0)
d21(3,7)                                            1 	(obj:0)
d21(4,15)                                           1 	(obj:0)
d21(4,16)                                           1 	(obj:0)
d21(4,17)                                           1 	(obj:0)
d21(4,19)                                           1 	(obj:0)
d21(4,23)                                           1 	(obj:0)
d21(4,24)                                           1 	(obj:0)
d21(4,25)                                           1 	(obj:0)
d21(4,27)                                           1 	(obj:0)
STE(1,1)                                        11592 	(obj:0)
STE(0,0)                                        12600 	(obj:0)
STE(1,2)                             12908.2140858765 	(obj:0)
STE(2,3)                             5796.00000000033 	(obj:0)
STE(2,4)                             7454.24989888916 	(obj:0)
STE(2,5)                              7112.2140858768 	(obj:0)
STE(2,6)                             8770.46398476562 	(obj:0)
STE(3,7)                             3129.75010111149 	(obj:0)
STE(3,8)                             4788.00000000033 	(obj:0)
STE(3,9)                             4788.00000000032 	(obj:0)
STE(3,10)                            6446.24989888916 	(obj:0)
STE(3,11)                            4445.96418698795 	(obj:0)
STE(3,12)                            6104.21408587677 	(obj:0)
STE(3,13)                            6104.21408587677 	(obj:0)
STE(3,14)                            7762.46398476562 	(obj:0)
STE(4,15)                            463.500202222336 	(obj:0)
STE(4,16)                            2121.75010111115 	(obj:0)
STE(4,17)                            2121.75010111118 	(obj:0)
STE(4,18)                                        3780 	(obj:0)
STE(4,19)                            2121.75010111117 	(obj:0)
STE(4,20)                            3779.99999999998 	(obj:0)
STE(4,21)                                        3780 	(obj:0)
STE(4,22)                            5438.24989888883 	(obj:0)
STE(4,23)                             1779.7142880988 	(obj:0)
STE(4,24)                            3437.96418698752 	(obj:0)
STE(4,25)                            3437.96418698762 	(obj:0)
STE(4,26)                            5096.21408587644 	(obj:0)
STE(4,27)                            3437.96418698762 	(obj:0)
STE(4,28)                            5096.21408587637 	(obj:0)
STE(4,29)                            5096.21408587647 	(obj:0)
STE(4,30)                            6754.46398476529 	(obj:0)
y1(3,11)                             1492.42490899996 	(obj:0)
y1(3,13)                             1492.42490899996 	(obj:0)
y1(4,15)                             1492.42490900023 	(obj:0)
y1(4,17)                             1492.42490900023 	(obj:0)
y1(4,19)                             1492.42490900023 	(obj:0)
y1(4,21)                             1492.42490900025 	(obj:0)
y1(4,23)                             1492.42490900023 	(obj:0)
y1(4,25)                             1492.42490900023 	(obj:0)
y1(4,27)                             1492.42490900023 	(obj:0)
y1(4,29)                             1492.42490900023 	(obj:0)
WB(1)                                 592.50702913637 	(obj:0)
AVE(1)                               3265.91696791192 	(obj:0)
AVE(2)                               3332.74178563731 	(obj:0)
AVE(3)                               3444.11697932125 	(obj:0)
AVE(4)                               3399.56511093778 	(obj:0)
WG(1)                                2673.40993877555 	(obj:10)
WG(2)                                3332.74178563731 	(obj:10)
WG(3)                                3444.11697932118 	(obj:10)
WG(4)                                3399.56511093778 	(obj:10)
BG(2)                                3737.81101028077 	(obj:10)
BG(3)                                752.175519658414 	(obj:10)
BG(4)                                 796.72738804209 	(obj:10)
y1(2,3)                               4309.1999999997 	(obj:0)
y1(2,4)                              2816.77509099975 	(obj:0)
y1(2,5)                               4309.1999999997 	(obj:0)
y1(2,6)                              2816.77509099977 	(obj:0)
y1(3,7)                              1492.42490899996 	(obj:0)
y1(3,9)                              1492.42490899996 	(obj:0)
y2(1,2)                              1385.48851144891 	(obj:0)
